c numero: 16
c nombre: n-30-d-0.1
c densidad: 0.1
p edges 30 51
e 1 17
e 2 15
e 2 24
e 2 25
e 2 30
e 3 23
e 4 18
e 4 19
e 4 28
e 5 10
e 5 14
e 5 17
e 6 22
e 6 23
e 6 25
e 7 13
e 7 22
e 7 26
e 8 15
e 8 17
e 9 11
e 9 15
e 9 22
e 9 25
e 10 21
e 10 23
e 10 26
e 10 30
e 11 14
e 11 28
e 12 30
e 13 23
e 13 30
e 15 21
e 15 27
e 15 30
e 17 23
e 17 30
e 19 23
e 19 27
e 20 24
e 20 25
e 20 26
e 20 28
e 20 30
e 22 24
e 22 27
e 22 28
e 22 30
e 23 24
e 24 30
